(set-logic QF_LRA)
(declare-fun parameter_load_at_depot_r@1 () Real)
(declare-fun parameter_load_at_depot_pallet@1 () Real)
(declare-fun fluent_robot_at_r0_p0@0 () Bool)
(declare-fun fluent_robot_at_r0_p1@0 () Bool)
(declare-fun fluent_robot_free_r0@0 () Bool)
(declare-fun fluent_pallet_at_plt0_p0@0 () Bool)
(declare-fun fluent_pallet_at_plt0_p1@0 () Bool)
(declare-fun act_unload_at_depot@1 () Bool)
(declare-fun fluent_battery_level_r0@0 () Real)
(declare-fun parameter_unload_at_depot_pos@1 () Real)
(declare-fun parameter_unload_at_depot_r@1 () Real)
(declare-fun parameter_unload_at_depot_pallet@1 () Real)
(declare-fun fluent_position_free_p0@0 () Bool)
(declare-fun fluent_position_free_p1@0 () Bool)
(declare-fun fluent_robot_has_r0_plt0@0 () Bool)
(declare-fun fluent_ready_plt0_p0_t0@0 () Bool)
(declare-fun fluent_ready_plt0_p1_t0@0 () Bool)
(declare-fun fluent_treated_plt0_t0@0 () Bool)
(declare-fun dur_make_treatment@1 () Real)
(declare-fun act_move@1 () Bool)
(declare-fun parameter_move_topos@1 () Real)
(declare-fun t@1 () Real)
(declare-fun parameter_move_frompos@1 () Real)
(declare-fun parameter_make_treatment_t@1 () Real)
(declare-fun parameter_make_treatment_pallet@1 () Real)
(declare-fun parameter_move_r@1 () Real)
(declare-fun parameter_make_treatment_r@1 () Real)
(declare-fun parameter_make_treatment_pos@1 () Real)
(declare-fun fluent_robot_at_r0_p0@1 () Bool)
(declare-fun fluent_robot_at_r0_p1@1 () Bool)
(declare-fun fluent_battery_level_r0@1 () Real)
(declare-fun act_load@1 () Bool)
(declare-fun parameter_load_t@1 () Real)
(declare-fun parameter_load_pos@1 () Real)
(declare-fun parameter_load_pallet@1 () Real)
(declare-fun act_make_treatment@1 () Bool)
(declare-fun parameter_load_r@1 () Real)
(declare-fun fluent_robot_free_r0@1 () Bool)
(declare-fun fluent_ready_plt0_p0_t0@1 () Bool)
(declare-fun fluent_ready_plt0_p1_t0@1 () Bool)
(declare-fun fluent_pallet_at_plt0_p0@1 () Bool)
(declare-fun fluent_pallet_at_plt0_p1@1 () Bool)
(declare-fun fluent_robot_has_r0_plt0@1 () Bool)
(declare-fun fluent_treated_plt0_t0@1 () Bool)
(declare-fun fluent_position_free_p0@1 () Bool)
(declare-fun fluent_position_free_p1@1 () Bool)
(declare-fun act_load_at_depot@1 () Bool)
(declare-fun parameter_load_at_depot_pos@1 () Real)
(assert (let ((.def_0 (= parameter_load_at_depot_pos@1 2.0))) (let ((.def_1 (= parameter_load_at_depot_pos@1 1.0))) (let ((.def_2 (or .def_1 .def_0))) (let ((.def_3 (= parameter_load_r@1 0.0))) (let ((.def_4 (= parameter_load_pallet@1 3.0))) (let ((.def_5 (= parameter_load_pos@1 2.0))) (let ((.def_6 (= parameter_load_pos@1 1.0))) (let ((.def_7 (or .def_6 .def_5))) (let ((.def_8 (= parameter_load_t@1 4.0))) (let ((.def_9 (<= fluent_battery_level_r0@1 100.0))) (let ((.def_10 (<= 0.0 fluent_battery_level_r0@1))) (let ((.def_11 (= parameter_make_treatment_pos@1 2.0))) (let ((.def_12 (= parameter_make_treatment_pos@1 1.0))) (let ((.def_13 (or .def_12 .def_11))) (let ((.def_14 (= parameter_make_treatment_r@1 0.0))) (let ((.def_15 (= parameter_move_r@1 0.0))) (let ((.def_16 (= parameter_make_treatment_pallet@1 3.0))) (let ((.def_17 (= parameter_make_treatment_t@1 4.0))) (let ((.def_18 (= parameter_move_frompos@1 2.0))) (let ((.def_19 (= parameter_move_frompos@1 1.0))) (let ((.def_20 (or .def_19 .def_18))) (let ((.def_21 (= parameter_move_topos@1 2.0))) (let ((.def_22 (= parameter_move_topos@1 1.0))) (let ((.def_23 (or .def_22 .def_21))) (let ((.def_24 (= parameter_unload_at_depot_pallet@1 3.0))) (let ((.def_25 (= parameter_unload_at_depot_r@1 0.0))) (let ((.def_26 (= parameter_unload_at_depot_pos@1 2.0))) (let ((.def_27 (= parameter_unload_at_depot_pos@1 1.0))) (let ((.def_28 (or .def_27 .def_26))) (let ((.def_29 (= parameter_load_at_depot_pallet@1 3.0))) (let ((.def_30 (= parameter_load_at_depot_r@1 0.0))) (let ((.def_31 (and act_move@1 true .def_15))) (let ((.def_32 (= fluent_battery_level_r0@0 fluent_battery_level_r0@1))) (let ((.def_33 (not .def_32))) (let ((.def_34 (=> .def_33 .def_31))) (let ((.def_35 (and act_make_treatment@1 true .def_16 .def_11))) (let ((.def_36 (and act_unload_at_depot@1 true .def_24 .def_26))) (let ((.def_37 (and .def_36 .def_35))) (let ((.def_38 (not .def_37))) (let ((.def_39 (and act_load_at_depot@1 true .def_29 .def_0))) (let ((.def_40 (and .def_39 .def_35))) (let ((.def_41 (not .def_40))) (let ((.def_42 (and .def_39 .def_36))) (let ((.def_43 (not .def_42))) (let ((.def_44 (and act_load@1 true .def_4 .def_5))) (let ((.def_45 (and .def_44 .def_35))) (let ((.def_46 (not .def_45))) (let ((.def_47 (and .def_44 .def_36))) (let ((.def_48 (not .def_47))) (let ((.def_49 (and .def_44 .def_39))) (let ((.def_50 (not .def_49))) (let ((.def_51 (or .def_44 .def_39 .def_36 .def_35))) (let ((.def_52 (= fluent_pallet_at_plt0_p1@0 fluent_pallet_at_plt0_p1@1))) (let ((.def_53 (not .def_52))) (let ((.def_54 (=> .def_53 .def_51))) (let ((.def_55 (and act_make_treatment@1 true .def_16 .def_12))) (let ((.def_56 (and act_unload_at_depot@1 true .def_24 .def_27))) (let ((.def_57 (and .def_56 .def_55))) (let ((.def_58 (not .def_57))) (let ((.def_59 (and act_load_at_depot@1 true .def_29 .def_1))) (let ((.def_60 (and .def_59 .def_55))) (let ((.def_61 (not .def_60))) (let ((.def_62 (and .def_59 .def_56))) (let ((.def_63 (not .def_62))) (let ((.def_64 (and act_load@1 true .def_4 .def_6))) (let ((.def_65 (and .def_64 .def_55))) (let ((.def_66 (not .def_65))) (let ((.def_67 (and .def_64 .def_56))) (let ((.def_68 (not .def_67))) (let ((.def_69 (and .def_64 .def_59))) (let ((.def_70 (not .def_69))) (let ((.def_71 (or .def_64 .def_59 .def_56 .def_55))) (let ((.def_72 (= fluent_pallet_at_plt0_p0@0 fluent_pallet_at_plt0_p0@1))) (let ((.def_73 (not .def_72))) (let ((.def_74 (=> .def_73 .def_71))) (let ((.def_75 (and act_load@1 true .def_4 .def_8))) (let ((.def_76 (= fluent_treated_plt0_t0@0 fluent_treated_plt0_t0@1))) (let ((.def_77 (not .def_76))) (let ((.def_78 (=> .def_77 .def_75))) (let ((.def_79 (and act_make_treatment@1 true .def_11))) (let ((.def_80 (and act_load@1 true .def_5))) (let ((.def_81 (and .def_80 .def_79))) (let ((.def_82 (not .def_81))) (let ((.def_83 (or .def_80 .def_79))) (let ((.def_84 (= fluent_position_free_p1@0 fluent_position_free_p1@1))) (let ((.def_85 (not .def_84))) (let ((.def_86 (=> .def_85 .def_83))) (let ((.def_87 (and act_make_treatment@1 true .def_12))) (let ((.def_88 (and act_load@1 true .def_6))) (let ((.def_89 (and .def_88 .def_87))) (let ((.def_90 (not .def_89))) (let ((.def_91 (or .def_88 .def_87))) (let ((.def_92 (= fluent_position_free_p0@0 fluent_position_free_p0@1))) (let ((.def_93 (not .def_92))) (let ((.def_94 (=> .def_93 .def_91))) (let ((.def_95 (+ t@1 10.0))) (let ((.def_96 (= t@1 .def_95))) (let ((.def_97 (and act_make_treatment@1 true .def_96 .def_16 .def_11 .def_17))) (let ((.def_98 (and act_load@1 true .def_4 .def_5 .def_8))) (let ((.def_99 (and .def_98 .def_97))) (let ((.def_100 (not .def_99))) (let ((.def_101 (or .def_98 .def_97))) (let ((.def_102 (= fluent_ready_plt0_p1_t0@0 fluent_ready_plt0_p1_t0@1))) (let ((.def_103 (not .def_102))) (let ((.def_104 (=> .def_103 .def_101))) (let ((.def_105 (and act_make_treatment@1 true .def_96 .def_16 .def_12 .def_17))) (let ((.def_106 (and act_load@1 true .def_4 .def_6 .def_8))) (let ((.def_107 (and .def_106 .def_105))) (let ((.def_108 (not .def_107))) (let ((.def_109 (or .def_106 .def_105))) (let ((.def_110 (= fluent_ready_plt0_p0_t0@0 fluent_ready_plt0_p0_t0@1))) (let ((.def_111 (not .def_110))) (let ((.def_112 (=> .def_111 .def_109))) (let ((.def_113 (and act_make_treatment@1 true .def_14 .def_16))) (let ((.def_114 (and act_unload_at_depot@1 true .def_25 .def_24))) (let ((.def_115 (and .def_114 .def_113))) (let ((.def_116 (not .def_115))) (let ((.def_117 (and act_load_at_depot@1 true .def_30 .def_29))) (let ((.def_118 (and .def_117 .def_113))) (let ((.def_119 (not .def_118))) (let ((.def_120 (and .def_117 .def_114))) (let ((.def_121 (not .def_120))) (let ((.def_122 (and act_load@1 true .def_3 .def_4))) (let ((.def_123 (and .def_122 .def_113))) (let ((.def_124 (not .def_123))) (let ((.def_125 (and .def_122 .def_114))) (let ((.def_126 (not .def_125))) (let ((.def_127 (and .def_122 .def_117))) (let ((.def_128 (not .def_127))) (let ((.def_129 (or .def_122 .def_117 .def_114 .def_113))) (let ((.def_130 (= fluent_robot_has_r0_plt0@0 fluent_robot_has_r0_plt0@1))) (let ((.def_131 (not .def_130))) (let ((.def_132 (=> .def_131 .def_129))) (let ((.def_133 (and act_make_treatment@1 true .def_14))) (let ((.def_134 (and act_unload_at_depot@1 true .def_25))) (let ((.def_135 (and .def_134 .def_133))) (let ((.def_136 (not .def_135))) (let ((.def_137 (and act_load_at_depot@1 true .def_30))) (let ((.def_138 (and .def_137 .def_133))) (let ((.def_139 (not .def_138))) (let ((.def_140 (and .def_137 .def_134))) (let ((.def_141 (not .def_140))) (let ((.def_142 (and act_load@1 true .def_3))) (let ((.def_143 (and .def_142 .def_133))) (let ((.def_144 (not .def_143))) (let ((.def_145 (and .def_142 .def_134))) (let ((.def_146 (not .def_145))) (let ((.def_147 (and .def_142 .def_137))) (let ((.def_148 (not .def_147))) (let ((.def_149 (or .def_142 .def_137 .def_134 .def_133))) (let ((.def_150 (= fluent_robot_free_r0@0 fluent_robot_free_r0@1))) (let ((.def_151 (not .def_150))) (let ((.def_152 (=> .def_151 .def_149))) (let ((.def_153 (and act_move@1 true .def_15 .def_18))) (let ((.def_154 (and act_move@1 true .def_15 .def_21))) (let ((.def_155 (and .def_154 .def_153))) (let ((.def_156 (not .def_155))) (let ((.def_157 (or .def_154 .def_153))) (let ((.def_158 (= fluent_robot_at_r0_p1@0 fluent_robot_at_r0_p1@1))) (let ((.def_159 (not .def_158))) (let ((.def_160 (=> .def_159 .def_157))) (let ((.def_161 (and act_move@1 true .def_15 .def_19))) (let ((.def_162 (and act_move@1 true .def_15 .def_22))) (let ((.def_163 (and .def_162 .def_161))) (let ((.def_164 (not .def_163))) (let ((.def_165 (or .def_162 .def_161))) (let ((.def_166 (= fluent_robot_at_r0_p0@0 fluent_robot_at_r0_p0@1))) (let ((.def_167 (not .def_166))) (let ((.def_168 (=> .def_167 .def_165))) (let ((.def_169 (and .def_168 .def_164 .def_160 .def_156 .def_152 .def_148 .def_146 .def_144 .def_141 .def_139 .def_136 .def_132 .def_128 .def_126 .def_124 .def_121 .def_119 .def_116 .def_112 .def_108 .def_104 .def_100 .def_94 .def_90 .def_86 .def_82 .def_78 .def_74 .def_70 .def_68 .def_66 .def_63 .def_61 .def_58 .def_54 .def_50 .def_48 .def_46 .def_43 .def_41 .def_38 .def_34))) (let ((.def_170 (= t@1 t@1))) (let ((.def_171 (and act_load@1 act_move@1 .def_170))) (let ((.def_172 (not .def_171))) (let ((.def_173 (and act_load_at_depot@1 act_make_treatment@1 .def_170))) (let ((.def_174 (not .def_173))) (let ((.def_175 (and act_load@1 act_make_treatment@1 .def_96))) (let ((.def_176 (not .def_175))) (let ((.def_177 (and act_load_at_depot@1 act_load@1 .def_170))) (let ((.def_178 (not .def_177))) (let ((.def_179 (+ t@1 dur_make_treatment@1))) (let ((.def_180 (= .def_179 t@1))) (let ((.def_181 (and act_make_treatment@1 act_load@1 .def_180))) (let ((.def_182 (not .def_181))) (let ((.def_183 (and act_load_at_depot@1 act_move@1 .def_170))) (let ((.def_184 (not .def_183))) (let ((.def_185 (and act_unload_at_depot@1 act_load@1 .def_170))) (let ((.def_186 (not .def_185))) (let ((.def_187 (and act_make_treatment@1 act_move@1 .def_170))) (let ((.def_188 (not .def_187))) (let ((.def_189 (and act_unload_at_depot@1 act_make_treatment@1 .def_170))) (let ((.def_190 (not .def_189))) (let ((.def_191 (and act_unload_at_depot@1 act_load_at_depot@1 .def_170))) (let ((.def_192 (not .def_191))) (let ((.def_193 (and act_unload_at_depot@1 act_move@1 .def_170))) (let ((.def_194 (not .def_193))) (let ((.def_195 (and act_make_treatment@1 act_load@1 .def_170))) (let ((.def_196 (not .def_195))) (let ((.def_197 (and .def_196 .def_194 .def_192 .def_190 .def_188 .def_186 .def_184 .def_182 .def_178 .def_176 .def_174 .def_172))) (let ((.def_198 (<= 0.0 t@1))) (let ((.def_199 (and .def_16 .def_11 .def_17))) (let ((.def_200 (ite .def_199 fluent_ready_plt0_p1_t0@1 fluent_ready_plt0_p0_t0@1))) (let ((.def_201 (= .def_200 true))) (let ((.def_202 (=> true .def_201))) (let ((.def_203 (and .def_96 .def_202))) (let ((.def_204 (= fluent_robot_free_r0@1 true))) (let ((.def_205 (=> true .def_204))) (let ((.def_206 (and .def_16 .def_11))) (let ((.def_207 (ite .def_206 fluent_pallet_at_plt0_p1@1 fluent_pallet_at_plt0_p0@1))) (let ((.def_208 (= .def_207 true))) (let ((.def_209 (=> true .def_208))) (let ((.def_210 (= fluent_robot_has_r0_plt0@1 false))) (let ((.def_211 (=> true .def_210))) (let ((.def_212 (ite .def_11 fluent_position_free_p1@1 fluent_position_free_p0@1))) (let ((.def_213 (= .def_212 false))) (let ((.def_214 (=> true .def_213))) (let ((.def_215 (and .def_170 .def_214 .def_211 .def_209 .def_205))) (let ((.def_216 (ite .def_11 fluent_position_free_p1@0 fluent_position_free_p0@0))) (let ((.def_217 (and fluent_treated_plt0_t0@0 .def_216))) (let ((.def_218 (<= .def_179 t@1))) (let ((.def_219 (< (- 1.0) .def_179))) (let ((.def_220 (and .def_219 .def_218))) (let ((.def_221 (=> .def_220 .def_217))) (let ((.def_222 (not fluent_treated_plt0_t0@0))) (let ((.def_223 (and .def_14 .def_11))) (let ((.def_224 (ite .def_223 fluent_robot_at_r0_p1@0 fluent_robot_at_r0_p0@0))) (let ((.def_225 (and .def_11 .def_17))) (let ((.def_226 (ite .def_225 false true))) (let ((.def_227 (and .def_226 .def_216 .def_224 fluent_robot_has_r0_plt0@0 .def_222))) (let ((.def_228 (<= t@1 t@1))) (let ((.def_229 (< (- 1.0) t@1))) (let ((.def_230 (and .def_229 .def_228))) (let ((.def_231 (=> .def_230 .def_227))) (let ((.def_232 (<= dur_make_treatment@1 20.0))) (let ((.def_233 (<= 20.0 dur_make_treatment@1))) (let ((.def_234 (and .def_233 .def_232))) (let ((.def_235 (and .def_234 .def_218 .def_231 .def_221 .def_215 .def_203))) (let ((.def_236 (=> act_make_treatment@1 .def_235))) (let ((.def_237 (and .def_24 .def_26))) (let ((.def_238 (ite .def_237 fluent_pallet_at_plt0_p1@1 fluent_pallet_at_plt0_p0@1))) (let ((.def_239 (= .def_238 true))) (let ((.def_240 (=> true .def_239))) (let ((.def_241 (and .def_25 .def_26))) (let ((.def_242 (ite .def_241 fluent_robot_at_r0_p1@0 fluent_robot_at_r0_p0@0))) (let ((.def_243 (ite .def_26 true false))) (let ((.def_244 (and .def_243 .def_242 fluent_robot_has_r0_plt0@0 .def_240 .def_205 .def_211))) (let ((.def_245 (=> act_unload_at_depot@1 .def_244))) (let ((.def_246 (and .def_29 .def_0))) (let ((.def_247 (ite .def_246 fluent_pallet_at_plt0_p1@1 fluent_pallet_at_plt0_p0@1))) (let ((.def_248 (= .def_247 false))) (let ((.def_249 (=> true .def_248))) (let ((.def_250 (= fluent_robot_has_r0_plt0@1 true))) (let ((.def_251 (=> true .def_250))) (let ((.def_252 (= fluent_robot_free_r0@1 false))) (let ((.def_253 (=> true .def_252))) (let ((.def_254 (ite .def_246 fluent_pallet_at_plt0_p1@0 fluent_pallet_at_plt0_p0@0))) (let ((.def_255 (and .def_30 .def_0))) (let ((.def_256 (ite .def_255 fluent_robot_at_r0_p1@0 fluent_robot_at_r0_p0@0))) (let ((.def_257 (ite .def_0 true false))) (let ((.def_258 (and .def_257 .def_256 fluent_robot_free_r0@0 .def_254 .def_253 .def_251 .def_249))) (let ((.def_259 (=> act_load_at_depot@1 .def_258))) (let ((.def_260 (ite .def_5 fluent_position_free_p1@1 fluent_position_free_p0@1))) (let ((.def_261 (= .def_260 true))) (let ((.def_262 (=> true .def_261))) (let ((.def_263 (= fluent_treated_plt0_t0@1 true))) (let ((.def_264 (=> true .def_263))) (let ((.def_265 (and .def_4 .def_5))) (let ((.def_266 (ite .def_265 fluent_pallet_at_plt0_p1@1 fluent_pallet_at_plt0_p0@1))) (let ((.def_267 (= .def_266 false))) (let ((.def_268 (=> true .def_267))) (let ((.def_269 (and .def_4 .def_5 .def_8))) (let ((.def_270 (ite .def_269 fluent_ready_plt0_p1_t0@1 fluent_ready_plt0_p0_t0@1))) (let ((.def_271 (= .def_270 false))) (let ((.def_272 (=> true .def_271))) (let ((.def_273 (ite .def_265 fluent_pallet_at_plt0_p1@0 fluent_pallet_at_plt0_p0@0))) (let ((.def_274 (and .def_3 .def_5))) (let ((.def_275 (ite .def_274 fluent_robot_at_r0_p1@0 fluent_robot_at_r0_p0@0))) (let ((.def_276 (ite .def_269 fluent_ready_plt0_p1_t0@0 fluent_ready_plt0_p0_t0@0))) (let ((.def_277 (and .def_276 .def_275 fluent_robot_free_r0@0 .def_273 .def_253 .def_272 .def_268 .def_251 .def_264 .def_262))) (let ((.def_278 (=> act_load@1 .def_277))) (let ((.def_279 (and .def_18 .def_22))) (let ((.def_280 (ite .def_279 1.0 0.0))) (let ((.def_281 (and .def_19 .def_21))) (let ((.def_282 (ite .def_281 1.0 .def_280))) (let ((.def_283 (and .def_18 .def_21))) (let ((.def_284 (ite .def_283 0.0 .def_282))) (let ((.def_285 (- fluent_battery_level_r0@0 .def_284))) (let ((.def_286 (= fluent_battery_level_r0@1 .def_285))) (let ((.def_287 (=> true .def_286))) (let ((.def_288 (and .def_15 .def_18))) (let ((.def_289 (ite .def_288 fluent_robot_at_r0_p1@1 fluent_robot_at_r0_p0@1))) (let ((.def_290 (= .def_289 false))) (let ((.def_291 (=> true .def_290))) (let ((.def_292 (and .def_15 .def_21))) (let ((.def_293 (ite .def_292 fluent_robot_at_r0_p1@1 fluent_robot_at_r0_p0@1))) (let ((.def_294 (= .def_293 true))) (let ((.def_295 (=> true .def_294))) (let ((.def_296 (<= .def_284 fluent_battery_level_r0@0))) (let ((.def_297 (ite .def_288 fluent_robot_at_r0_p1@0 fluent_robot_at_r0_p0@0))) (let ((.def_298 (= parameter_move_frompos@1 parameter_move_topos@1))) (let ((.def_299 (not .def_298))) (let ((.def_300 (and .def_299 .def_297 .def_296 .def_295 .def_291 .def_287))) (let ((.def_301 (=> act_move@1 .def_300))) (let ((.def_302 (<= 0.0 fluent_battery_level_r0@0))) (let ((.def_303 (<= fluent_battery_level_r0@0 100.0))) (let ((.def_304 (= false false))) (let ((.def_305 (= fluent_pallet_at_plt0_p0@0 false))) (let ((.def_306 (= fluent_treated_plt0_t0@0 false))) (let ((.def_307 (= fluent_ready_plt0_p1_t0@0 false))) (let ((.def_308 (= fluent_ready_plt0_p0_t0@0 false))) (let ((.def_309 (= fluent_robot_has_r0_plt0@0 false))) (let ((.def_310 (= fluent_robot_at_r0_p0@0 false))) (let ((.def_311 (= true true))) (let ((.def_312 (= fluent_position_free_p1@0 true))) (let ((.def_313 (= fluent_position_free_p0@0 true))) (let ((.def_314 (= 0.0 0.0))) (let ((.def_315 (= 1.0 1.0))) (let ((.def_316 (= fluent_battery_level_r0@0 4.0))) (let ((.def_317 (= fluent_pallet_at_plt0_p1@0 true))) (let ((.def_318 (= fluent_robot_free_r0@0 true))) (let ((.def_319 (= fluent_robot_at_r0_p1@0 true))) (let ((.def_320 (and .def_319 .def_318 .def_317 .def_316 .def_314 .def_315 .def_315 .def_314 .def_311 .def_313 .def_312 .def_311 .def_310 .def_309 .def_308 .def_307 .def_306 .def_305 .def_304 .def_304 .def_303 .def_302))) (let ((.def_321 (and .def_320 .def_301 .def_278 .def_259 .def_245 .def_236 .def_198 .def_197 true .def_169 .def_30 .def_29 .def_28 .def_25 .def_24 .def_23 .def_20 .def_17 .def_16 .def_15 .def_14 .def_13 .def_10 .def_9 .def_8 .def_7 .def_4 .def_3 .def_2 true))) .def_321)))))))))))))))))))))))))))))))))))))))))))))))))))))))))))))))))))))))))))))))))))))))))))))))))))))))))))))))))))))))))))))))))))))))))))))))))))))))))))))))))))))))))))))))))))))))))))))))))))))))))))))))))))))))))))))))))))))))))))))))))))))))))))))))))))))))))))))))))))))))))))))))))))))))))))))))))))))))))))))))))))
(check-sat)


